% File represents an instance of a Composite Structure problem to be solved by a CP framework
% Created on 2025-03-26 10:41:32.924
T = 50;
n = 25;
m = 40;
edges = [(1, 2),
(6, 7),
(11, 12),
(17, 16),
(21, 22),
(2, 3),
(8, 7),
(13, 12),
(17, 18),
(23, 22),
(4, 3),
(8, 9),
(13, 14),
(19, 18),
(23, 24),
(4, 5),
(9, 10),
(14, 15),
(19, 20),
(24, 25),
(1, 6),
(6, 11),
(11, 16),
(21, 16),
(2, 7),
(7, 12),
(17, 12),
(17, 22),
(8, 3),
(8, 13),
(13, 18),
(23, 18),
(4, 9),
(9, 14),
(19, 14),
(19, 24),
(5, 10),
(10, 15),
(15, 20),
(20, 25)];
counts = [|6, 24, 6, 14,
|6, 18, 6, 14,
|6, 16, 6, 10,
|8, 16, 8, 10,
|8, 12, 8, 10,
|6, 20, 6, 12,
|6, 16, 6, 10,
|6, 16, 6, 12,
|6, 16, 6, 10,
|6, 12, 6, 10,
|6, 16, 6, 12,
|6, 12, 6, 10,
|6, 12, 6, 12,
|6, 12, 6, 10,
|6, 12, 6, 8,
|6, 14, 6, 10,
|6, 14, 6, 12,
|6, 10, 6, 12,
|6, 12, 6, 12,
|6, 12, 6, 6,
|6, 16, 6, 10,
|6, 12, 6, 10,
|6, 12, 6, 12,
|6, 10, 6, 8,
|6, 6, 6, 6|];
